(set-logic QF_LIA)
(declare-fun x0 () Int)
(declare-fun x1 () Int)
(declare-fun x2 () Int)
(declare-fun x3 () Int)
(declare-fun x4 () Int)
(declare-fun x5 () Int)
(declare-fun x6 () Int)
(declare-fun x7 () Int)
(declare-fun x8 () Int)
(declare-fun x9 () Int)
(declare-fun A0 () Bool)
(declare-fun A1 () Bool)
(declare-fun A2 () Bool)
(declare-fun A3 () Bool)
(declare-fun A4 () Bool)
(declare-fun A5 () Bool)
(declare-fun A6 () Bool)
(declare-fun A7 () Bool)
(declare-fun A8 () Bool)
(declare-fun A9 () Bool)
(assert (let ((.def_0 (not A8))) (let ((.def_1 (= A3 .def_0))) (let ((.def_2 (* (- 1) x7))) (let ((.def_3 (* 1 x0))) (let ((.def_4 (+ .def_3 .def_2))) (let ((.def_5 (< .def_4 (- 1)))) (let ((.def_6 (not A4))) (let ((.def_7 (or .def_6 .def_5))) (let ((.def_8 (or .def_7 .def_1))) (let ((.def_9 (not .def_8))) (let ((.def_10 (* (- 1) x0))) (let ((.def_11 (* 1 x2))) (let ((.def_12 (+ .def_11 .def_10))) (let ((.def_13 (< .def_12 1))) (let ((.def_14 (or .def_13 .def_0))) (let ((.def_15 (not A2))) (let ((.def_16 (or A1 .def_15))) (let ((.def_17 (not .def_16))) (let ((.def_18 (or .def_17 .def_14))) (let ((.def_19 (not .def_18))) (let ((.def_20 (or .def_19 .def_9))) (let ((.def_21 (not .def_20))) (let ((.def_22 (* 1 x3))) (let ((.def_23 (* (- 1) x5))) (let ((.def_24 (+ .def_23 .def_22))) (let ((.def_25 (< .def_24 (- 1)))) (let ((.def_26 (not .def_25))) (let ((.def_27 (or .def_26 .def_15))) (let ((.def_28 (not .def_27))) (let ((.def_29 (* (- 1) x4))) (let ((.def_30 (< .def_29 (- 1)))) (let ((.def_31 (not .def_30))) (let ((.def_32 (* (- 1) x3))) (let ((.def_33 (< .def_32 1))) (let ((.def_34 (and .def_33 .def_31))) (let ((.def_35 (not .def_34))) (let ((.def_36 (or .def_35 .def_28))) (let ((.def_37 (not .def_36))) (let ((.def_38 (+ .def_11 .def_2))) (let ((.def_39 (< .def_38 1))) (let ((.def_40 (and A1 .def_39))) (let ((.def_41 (not .def_40))) (let ((.def_42 (< .def_11 (- 1)))) (let ((.def_43 (and .def_42 A9))) (let ((.def_44 (not .def_43))) (let ((.def_45 (or .def_44 .def_41))) (let ((.def_46 (and .def_45 .def_37))) (let ((.def_47 (not .def_46))) (let ((.def_48 (and .def_47 .def_21))) (let ((.def_49 (* 1 x5))) (let ((.def_50 (+ .def_11 .def_49))) (let ((.def_51 (< .def_50 (- 1)))) (let ((.def_52 (not .def_51))) (let ((.def_53 (or .def_6 .def_52))) (let ((.def_54 (not .def_53))) (let ((.def_55 (not A6))) (let ((.def_56 (not A1))) (let ((.def_57 (or .def_56 .def_55))) (let ((.def_58 (= .def_57 .def_54))) (let ((.def_59 (not .def_58))) (let ((.def_60 (not A9))) (let ((.def_61 (+ .def_22 .def_3))) (let ((.def_62 (< .def_61 (- 1)))) (let ((.def_63 (and .def_62 .def_60))) (let ((.def_64 (not .def_63))) (let ((.def_65 (< .def_23 (- 1)))) (let ((.def_66 (not .def_65))) (let ((.def_67 (* 1 x6))) (let ((.def_68 (* 1 x8))) (let ((.def_69 (+ .def_68 .def_67))) (let ((.def_70 (< .def_69 1))) (let ((.def_71 (not .def_70))) (let ((.def_72 (and .def_71 .def_66))) (let ((.def_73 (not .def_72))) (let ((.def_74 (or .def_73 .def_64))) (let ((.def_75 (not .def_74))) (let ((.def_76 (and .def_75 .def_59))) (let ((.def_77 (< .def_22 (- 1)))) (let ((.def_78 (or .def_77 A1))) (let ((.def_79 (not .def_78))) (let ((.def_80 (or .def_56 A7))) (let ((.def_81 (or .def_80 .def_79))) (let ((.def_82 (+ .def_2 .def_3))) (let ((.def_83 (< .def_82 (- 1)))) (let ((.def_84 (and .def_83 A0))) (let ((.def_85 (* (- 1) x1))) (let ((.def_86 (* (- 1) x2))) (let ((.def_87 (+ .def_86 .def_85))) (let ((.def_88 (< .def_87 1))) (let ((.def_89 (and .def_88 .def_42))) (let ((.def_90 (not .def_89))) (let ((.def_91 (and .def_90 .def_84))) (let ((.def_92 (not .def_91))) (let ((.def_93 (and .def_92 .def_81))) (let ((.def_94 (and .def_93 .def_76))) (let ((.def_95 (or .def_94 .def_48))) (let ((.def_96 (not .def_95))) (let ((.def_97 (< .def_22 1))) (let ((.def_98 (and .def_97 .def_6))) (let ((.def_99 (= .def_55 A8))) (let ((.def_100 (or .def_99 .def_98))) (let ((.def_101 (or A0 A0))) (let ((.def_102 (not A3))) (let ((.def_103 (or .def_102 .def_42))) (let ((.def_104 (not .def_103))) (let ((.def_105 (or .def_104 .def_101))) (let ((.def_106 (or .def_105 .def_100))) (let ((.def_107 (or .def_56 A1))) (let ((.def_108 (* (- 1) x6))) (let ((.def_109 (+ .def_108 .def_85))) (let ((.def_110 (< .def_109 (- 1)))) (let ((.def_111 (or .def_110 A0))) (let ((.def_112 (not .def_111))) (let ((.def_113 (and .def_112 .def_107))) (let ((.def_114 (< .def_49 1))) (let ((.def_115 (or .def_114 .def_15))) (let ((.def_116 (not .def_115))) (let ((.def_117 (* (- 1) x9))) (let ((.def_118 (+ .def_86 .def_117))) (let ((.def_119 (< .def_118 (- 1)))) (let ((.def_120 (not .def_119))) (let ((.def_121 (or .def_15 .def_120))) (let ((.def_122 (not .def_121))) (let ((.def_123 (and .def_122 .def_116))) (let ((.def_124 (or .def_123 .def_113))) (let ((.def_125 (or .def_124 .def_106))) (let ((.def_126 (not .def_125))) (let ((.def_127 (and A5 .def_0))) (let ((.def_128 (< .def_67 1))) (let ((.def_129 (not .def_128))) (let ((.def_130 (and .def_129 .def_0))) (let ((.def_131 (and .def_130 .def_127))) (let ((.def_132 (not A7))) (let ((.def_133 (and A2 .def_132))) (let ((.def_134 (not .def_133))) (let ((.def_135 (* 1 x7))) (let ((.def_136 (+ .def_117 .def_135))) (let ((.def_137 (< .def_136 (- 1)))) (let ((.def_138 (not A0))) (let ((.def_139 (= .def_138 .def_137))) (let ((.def_140 (and .def_139 .def_134))) (let ((.def_141 (and .def_140 .def_131))) (let ((.def_142 (not .def_141))) (let ((.def_143 (< .def_135 1))) (let ((.def_144 (not .def_143))) (let ((.def_145 (* 1 x4))) (let ((.def_146 (< .def_145 (- 1)))) (let ((.def_147 (not .def_146))) (let ((.def_148 (or .def_147 .def_144))) (let ((.def_149 (+ .def_135 .def_85))) (let ((.def_150 (< .def_149 1))) (let ((.def_151 (and .def_150 A7))) (let ((.def_152 (or .def_151 .def_148))) (let ((.def_153 (not .def_152))) (let ((.def_154 (and .def_60 A8))) (let ((.def_155 (not .def_154))) (let ((.def_156 (or A9 A7))) (let ((.def_157 (not .def_156))) (let ((.def_158 (and .def_157 .def_155))) (let ((.def_159 (not .def_158))) (let ((.def_160 (or .def_159 .def_153))) (let ((.def_161 (or .def_160 .def_142))) (let ((.def_162 (not .def_161))) (let ((.def_163 (and .def_162 .def_126))) (let ((.def_164 (not .def_163))) (let ((.def_165 (and .def_164 .def_96))) (let ((.def_166 (+ .def_29 .def_23))) (let ((.def_167 (< .def_166 (- 1)))) (let ((.def_168 (not .def_167))) (let ((.def_169 (and .def_168 A3))) (let ((.def_170 (not .def_169))) (let ((.def_171 (and .def_0 .def_56))) (let ((.def_172 (or .def_171 .def_170))) (let ((.def_173 (not .def_33))) (let ((.def_174 (or .def_173 .def_0))) (let ((.def_175 (not .def_174))) (let ((.def_176 (+ .def_32 .def_135))) (let ((.def_177 (< .def_176 1))) (let ((.def_178 (not .def_177))) (let ((.def_179 (or A1 .def_178))) (let ((.def_180 (not .def_179))) (let ((.def_181 (or .def_180 .def_175))) (let ((.def_182 (not .def_181))) (let ((.def_183 (or .def_182 .def_172))) (let ((.def_184 (or A2 .def_56))) (let ((.def_185 (not .def_184))) (let ((.def_186 (* 1 x9))) (let ((.def_187 (+ .def_186 .def_11))) (let ((.def_188 (< .def_187 1))) (let ((.def_189 (and .def_188 .def_65))) (let ((.def_190 (or .def_189 .def_185))) (let ((.def_191 (+ .def_10 .def_135))) (let ((.def_192 (< .def_191 1))) (let ((.def_193 (not .def_192))) (let ((.def_194 (and A9 .def_193))) (let ((.def_195 (+ .def_85 .def_68))) (let ((.def_196 (< .def_195 1))) (let ((.def_197 (not A5))) (let ((.def_198 (and .def_197 .def_196))) (let ((.def_199 (and .def_198 .def_194))) (let ((.def_200 (not .def_199))) (let ((.def_201 (= .def_200 .def_190))) (let ((.def_202 (not .def_201))) (let ((.def_203 (and .def_202 .def_183))) (let ((.def_204 (not .def_203))) (let ((.def_205 (+ .def_117 .def_29))) (let ((.def_206 (< .def_205 1))) (let ((.def_207 (= .def_197 .def_206))) (let ((.def_208 (* 1 x1))) (let ((.def_209 (+ .def_208 .def_68))) (let ((.def_210 (< .def_209 (- 1)))) (let ((.def_211 (not .def_210))) (let ((.def_212 (and .def_211 A8))) (let ((.def_213 (or .def_212 .def_207))) (let ((.def_214 (< .def_68 (- 1)))) (let ((.def_215 (not .def_214))) (let ((.def_216 (or .def_215 A1))) (let ((.def_217 (not .def_216))) (let ((.def_218 (or .def_0 A8))) (let ((.def_219 (and .def_218 .def_217))) (let ((.def_220 (not .def_219))) (let ((.def_221 (or .def_220 .def_213))) (let ((.def_222 (not .def_221))) (let ((.def_223 (and .def_215 .def_197))) (let ((.def_224 (+ .def_145 .def_2))) (let ((.def_225 (< .def_224 1))) (let ((.def_226 (= A1 .def_225))) (let ((.def_227 (not .def_226))) (let ((.def_228 (and .def_227 .def_223))) (let ((.def_229 (not .def_228))) (let ((.def_230 (and .def_15 .def_6))) (let ((.def_231 (or A4 .def_42))) (let ((.def_232 (not .def_231))) (let ((.def_233 (or .def_232 .def_230))) (let ((.def_234 (and .def_233 .def_229))) (let ((.def_235 (not .def_234))) (let ((.def_236 (and .def_235 .def_222))) (let ((.def_237 (not .def_236))) (let ((.def_238 (= .def_237 .def_204))) (let ((.def_239 (not .def_238))) (let ((.def_240 (or .def_15 .def_56))) (let ((.def_241 (not .def_240))) (let ((.def_242 (and .def_143 .def_15))) (let ((.def_243 (not .def_242))) (let ((.def_244 (and .def_243 .def_241))) (let ((.def_245 (+ .def_186 .def_3))) (let ((.def_246 (< .def_245 1))) (let ((.def_247 (not .def_246))) (let ((.def_248 (+ .def_67 .def_117))) (let ((.def_249 (< .def_248 (- 1)))) (let ((.def_250 (not .def_249))) (let ((.def_251 (and .def_250 .def_247))) (let ((.def_252 (not .def_251))) (let ((.def_253 (< .def_3 1))) (let ((.def_254 (= .def_15 .def_253))) (let ((.def_255 (not .def_254))) (let ((.def_256 (or .def_255 .def_252))) (let ((.def_257 (not .def_256))) (let ((.def_258 (and .def_257 .def_244))) (let ((.def_259 (and .def_114 A3))) (let ((.def_260 (< .def_38 (- 1)))) (let ((.def_261 (and .def_260 A6))) (let ((.def_262 (not .def_261))) (let ((.def_263 (or .def_262 .def_259))) (let ((.def_264 (not .def_263))) (let ((.def_265 (and A0 .def_56))) (let ((.def_266 (+ .def_32 .def_49))) (let ((.def_267 (< .def_266 1))) (let ((.def_268 (not .def_267))) (let ((.def_269 (* (- 1) x8))) (let ((.def_270 (< .def_269 (- 1)))) (let ((.def_271 (not .def_270))) (let ((.def_272 (or .def_271 .def_268))) (let ((.def_273 (= .def_272 .def_265))) (let ((.def_274 (not .def_273))) (let ((.def_275 (and .def_274 .def_264))) (let ((.def_276 (and .def_275 .def_258))) (let ((.def_277 (not .def_276))) (let ((.def_278 (+ .def_49 .def_208))) (let ((.def_279 (< .def_278 1))) (let ((.def_280 (not .def_279))) (let ((.def_281 (or A6 .def_280))) (let ((.def_282 (not .def_281))) (let ((.def_283 (< .def_117 1))) (let ((.def_284 (not .def_283))) (let ((.def_285 (and A0 .def_284))) (let ((.def_286 (or .def_285 .def_282))) (let ((.def_287 (not .def_286))) (let ((.def_288 (or A4 A2))) (let ((.def_289 (not .def_288))) (let ((.def_290 (or .def_56 A8))) (let ((.def_291 (and .def_290 .def_289))) (let ((.def_292 (and .def_291 .def_287))) (let ((.def_293 (not .def_292))) (let ((.def_294 (and A5 .def_55))) (let ((.def_295 (not .def_294))) (let ((.def_296 (+ .def_108 .def_11))) (let ((.def_297 (< .def_296 1))) (let ((.def_298 (not .def_297))) (let ((.def_299 (and .def_298 .def_60))) (let ((.def_300 (= .def_299 .def_295))) (let ((.def_301 (not .def_300))) (let ((.def_302 (= A6 A8))) (let ((.def_303 (or .def_302 .def_185))) (let ((.def_304 (not .def_303))) (let ((.def_305 (or .def_304 .def_301))) (let ((.def_306 (or .def_305 .def_293))) (let ((.def_307 (and .def_306 .def_277))) (let ((.def_308 (or .def_307 .def_239))) (let ((.def_309 (not .def_308))) (let ((.def_310 (and .def_309 .def_165))) (let ((.def_311 (not .def_310))) (let ((.def_312 (+ .def_2 .def_108))) (let ((.def_313 (< .def_312 (- 1)))) (let ((.def_314 (not .def_313))) (let ((.def_315 (and .def_77 .def_314))) (let ((.def_316 (+ .def_117 .def_108))) (let ((.def_317 (< .def_316 (- 1)))) (let ((.def_318 (not .def_317))) (let ((.def_319 (+ .def_49 .def_85))) (let ((.def_320 (< .def_319 1))) (let ((.def_321 (not .def_320))) (let ((.def_322 (or .def_321 .def_318))) (let ((.def_323 (not .def_322))) (let ((.def_324 (or .def_323 .def_315))) (let ((.def_325 (+ .def_11 .def_23))) (let ((.def_326 (< .def_325 1))) (let ((.def_327 (not .def_326))) (let ((.def_328 (and .def_215 .def_327))) (let ((.def_329 (not .def_77))) (let ((.def_330 (or .def_329 .def_97))) (let ((.def_331 (not .def_330))) (let ((.def_332 (or .def_331 .def_328))) (let ((.def_333 (not .def_332))) (let ((.def_334 (and .def_333 .def_324))) (let ((.def_335 (not .def_334))) (let ((.def_336 (and A8 .def_128))) (let ((.def_337 (not .def_336))) (let ((.def_338 (or .def_56 .def_6))) (let ((.def_339 (not .def_338))) (let ((.def_340 (or .def_339 .def_337))) (let ((.def_341 (not .def_340))) (let ((.def_342 (or A2 .def_77))) (let ((.def_343 (and A2 A9))) (let ((.def_344 (and .def_343 .def_342))) (let ((.def_345 (not .def_344))) (let ((.def_346 (or .def_345 .def_341))) (let ((.def_347 (or .def_346 .def_335))) (let ((.def_348 (not .def_42))) (let ((.def_349 (and .def_6 .def_348))) (let ((.def_350 (not .def_349))) (let ((.def_351 (+ .def_68 .def_10))) (let ((.def_352 (< .def_351 1))) (let ((.def_353 (< .def_86 1))) (let ((.def_354 (and .def_353 .def_352))) (let ((.def_355 (or .def_354 .def_350))) (let ((.def_356 (not .def_355))) (let ((.def_357 (< .def_135 (- 1)))) (let ((.def_358 (or A8 .def_357))) (let ((.def_359 (< .def_85 (- 1)))) (let ((.def_360 (not .def_359))) (let ((.def_361 (< .def_186 1))) (let ((.def_362 (not .def_361))) (let ((.def_363 (or .def_362 .def_360))) (let ((.def_364 (and .def_363 .def_358))) (let ((.def_365 (or .def_364 .def_356))) (let ((.def_366 (not .def_365))) (let ((.def_367 (+ .def_135 .def_108))) (let ((.def_368 (< .def_367 1))) (let ((.def_369 (and .def_15 .def_368))) (let ((.def_370 (not .def_369))) (let ((.def_371 (and A5 .def_60))) (let ((.def_372 (= .def_371 .def_370))) (let ((.def_373 (not .def_372))) (let ((.def_374 (< .def_117 (- 1)))) (let ((.def_375 (not .def_374))) (let ((.def_376 (and .def_375 .def_114))) (let ((.def_377 (not .def_376))) (let ((.def_378 (+ .def_145 .def_23))) (let ((.def_379 (< .def_378 (- 1)))) (let ((.def_380 (or .def_379 A7))) (let ((.def_381 (and .def_380 .def_377))) (let ((.def_382 (not .def_381))) (let ((.def_383 (and .def_382 .def_373))) (let ((.def_384 (and .def_383 .def_366))) (let ((.def_385 (not .def_384))) (let ((.def_386 (and .def_385 .def_347))) (let ((.def_387 (not .def_386))) (let ((.def_388 (and .def_360 A8))) (let ((.def_389 (+ .def_186 .def_10))) (let ((.def_390 (< .def_389 (- 1)))) (let ((.def_391 (not .def_390))) (let ((.def_392 (< .def_29 1))) (let ((.def_393 (not .def_392))) (let ((.def_394 (and .def_393 .def_391))) (let ((.def_395 (and .def_394 .def_388))) (let ((.def_396 (and .def_56 A2))) (let ((.def_397 (not .def_396))) (let ((.def_398 (and .def_65 .def_197))) (let ((.def_399 (or .def_398 .def_397))) (let ((.def_400 (not .def_399))) (let ((.def_401 (and .def_400 .def_395))) (let ((.def_402 (not .def_401))) (let ((.def_403 (and .def_0 .def_0))) (let ((.def_404 (+ .def_49 .def_108))) (let ((.def_405 (< .def_404 (- 1)))) (let ((.def_406 (not .def_405))) (let ((.def_407 (and A7 .def_406))) (let ((.def_408 (not .def_407))) (let ((.def_409 (or .def_408 .def_403))) (let ((.def_410 (and A5 .def_6))) (let ((.def_411 (not .def_410))) (let ((.def_412 (or .def_357 A1))) (let ((.def_413 (and .def_412 .def_411))) (let ((.def_414 (and .def_413 .def_409))) (let ((.def_415 (not .def_414))) (let ((.def_416 (or .def_415 .def_402))) (let ((.def_417 (< .def_269 1))) (let ((.def_418 (not .def_417))) (let ((.def_419 (or .def_132 .def_418))) (let ((.def_420 (and A4 .def_0))) (let ((.def_421 (not .def_420))) (let ((.def_422 (and .def_421 .def_419))) (let ((.def_423 (or A8 A6))) (let ((.def_424 (= A7 .def_60))) (let ((.def_425 (and .def_424 .def_423))) (let ((.def_426 (not .def_425))) (let ((.def_427 (and .def_426 .def_422))) (let ((.def_428 (not .def_427))) (let ((.def_429 (< .def_208 (- 1)))) (let ((.def_430 (not .def_429))) (let ((.def_431 (or .def_430 A4))) (let ((.def_432 (+ .def_11 .def_67))) (let ((.def_433 (< .def_432 (- 1)))) (let ((.def_434 (or A5 .def_433))) (let ((.def_435 (and .def_434 .def_431))) (let ((.def_436 (+ .def_135 .def_10))) (let ((.def_437 (< .def_436 1))) (let ((.def_438 (not .def_437))) (let ((.def_439 (+ .def_67 .def_186))) (let ((.def_440 (< .def_439 1))) (let ((.def_441 (not .def_440))) (let ((.def_442 (and .def_441 .def_438))) (let ((.def_443 (not .def_442))) (let ((.def_444 (+ .def_186 .def_49))) (let ((.def_445 (< .def_444 1))) (let ((.def_446 (not .def_445))) (let ((.def_447 (and A8 .def_446))) (let ((.def_448 (not .def_447))) (let ((.def_449 (or .def_448 .def_443))) (let ((.def_450 (and .def_449 .def_435))) (let ((.def_451 (not .def_450))) (let ((.def_452 (and .def_451 .def_428))) (let ((.def_453 (or .def_452 .def_416))) (let ((.def_454 (not .def_453))) (let ((.def_455 (and .def_454 .def_387))) (let ((.def_456 (not .def_455))) (let ((.def_457 (< .def_108 (- 1)))) (let ((.def_458 (not .def_457))) (let ((.def_459 (and .def_458 .def_128))) (let ((.def_460 (not .def_459))) (let ((.def_461 (+ .def_135 .def_208))) (let ((.def_462 (< .def_461 (- 1)))) (let ((.def_463 (not .def_462))) (let ((.def_464 (< .def_86 (- 1)))) (let ((.def_465 (not .def_464))) (let ((.def_466 (or .def_465 .def_463))) (let ((.def_467 (not .def_466))) (let ((.def_468 (= .def_467 .def_460))) (let ((.def_469 (not .def_468))) (let ((.def_470 (or .def_102 A8))) (let ((.def_471 (not .def_470))) (let ((.def_472 (+ .def_117 .def_85))) (let ((.def_473 (< .def_472 1))) (let ((.def_474 (not .def_473))) (let ((.def_475 (or A2 .def_474))) (let ((.def_476 (or .def_475 .def_471))) (let ((.def_477 (and .def_476 .def_469))) (let ((.def_478 (not .def_477))) (let ((.def_479 (+ .def_85 .def_23))) (let ((.def_480 (< .def_479 (- 1)))) (let ((.def_481 (not .def_480))) (let ((.def_482 (or .def_481 .def_132))) (let ((.def_483 (not .def_482))) (let ((.def_484 (and .def_361 .def_15))) (let ((.def_485 (not .def_484))) (let ((.def_486 (and .def_485 .def_483))) (let ((.def_487 (not .def_486))) (let ((.def_488 (and .def_284 A4))) (let ((.def_489 (not .def_488))) (let ((.def_490 (+ .def_32 .def_145))) (let ((.def_491 (< .def_490 1))) (let ((.def_492 (or .def_491 .def_283))) (let ((.def_493 (and .def_492 .def_489))) (let ((.def_494 (not .def_493))) (let ((.def_495 (and .def_494 .def_487))) (let ((.def_496 (not .def_495))) (let ((.def_497 (or .def_496 .def_478))) (let ((.def_498 (not .def_497))) (let ((.def_499 (+ .def_23 .def_135))) (let ((.def_500 (< .def_499 1))) (let ((.def_501 (not .def_500))) (let ((.def_502 (or .def_501 A4))) (let ((.def_503 (< .def_490 (- 1)))) (let ((.def_504 (= .def_132 .def_503))) (let ((.def_505 (or .def_504 .def_502))) (let ((.def_506 (not .def_505))) (let ((.def_507 (or A6 .def_102))) (let ((.def_508 (and .def_60 .def_138))) (let ((.def_509 (and .def_508 .def_507))) (let ((.def_510 (not .def_509))) (let ((.def_511 (= .def_510 .def_506))) (let ((.def_512 (or .def_6 .def_56))) (let ((.def_513 (or A7 .def_197))) (let ((.def_514 (not .def_513))) (let ((.def_515 (and .def_514 .def_512))) (let ((.def_516 (< .def_3 (- 1)))) (let ((.def_517 (+ .def_10 .def_23))) (let ((.def_518 (< .def_517 1))) (let ((.def_519 (or .def_518 .def_516))) (let ((.def_520 (< .def_32 (- 1)))) (let ((.def_521 (+ .def_145 .def_208))) (let ((.def_522 (< .def_521 (- 1)))) (let ((.def_523 (not .def_522))) (let ((.def_524 (or .def_523 .def_520))) (let ((.def_525 (and .def_524 .def_519))) (let ((.def_526 (and .def_525 .def_515))) (let ((.def_527 (and .def_526 .def_511))) (let ((.def_528 (not .def_527))) (let ((.def_529 (or .def_528 .def_498))) (let ((.def_530 (not .def_520))) (let ((.def_531 (= .def_530 .def_6))) (let ((.def_532 (+ .def_269 .def_2))) (let ((.def_533 (< .def_532 (- 1)))) (let ((.def_534 (not .def_533))) (let ((.def_535 (or .def_534 A4))) (let ((.def_536 (= .def_535 .def_531))) (let ((.def_537 (or .def_464 .def_102))) (let ((.def_538 (and A3 .def_56))) (let ((.def_539 (and .def_538 .def_537))) (let ((.def_540 (not .def_539))) (let ((.def_541 (= .def_540 .def_536))) (let ((.def_542 (not .def_541))) (let ((.def_543 (or A0 .def_132))) (let ((.def_544 (and .def_430 .def_15))) (let ((.def_545 (not .def_544))) (let ((.def_546 (or .def_545 .def_543))) (let ((.def_547 (< .def_68 1))) (let ((.def_548 (and .def_128 .def_547))) (let ((.def_549 (+ .def_108 .def_22))) (let ((.def_550 (< .def_549 (- 1)))) (let ((.def_551 (and A1 .def_550))) (let ((.def_552 (not .def_551))) (let ((.def_553 (or .def_552 .def_548))) (let ((.def_554 (not .def_553))) (let ((.def_555 (or .def_554 .def_546))) (let ((.def_556 (and .def_555 .def_542))) (let ((.def_557 (not .def_556))) (let ((.def_558 (= .def_138 .def_6))) (let ((.def_559 (not .def_558))) (let ((.def_560 (+ .def_22 .def_68))) (let ((.def_561 (< .def_560 1))) (let ((.def_562 (or .def_561 .def_132))) (let ((.def_563 (and .def_562 .def_559))) (let ((.def_564 (not .def_253))) (let ((.def_565 (= .def_564 .def_132))) (let ((.def_566 (not .def_565))) (let ((.def_567 (+ .def_269 .def_145))) (let ((.def_568 (< .def_567 1))) (let ((.def_569 (not .def_568))) (let ((.def_570 (or A8 .def_569))) (let ((.def_571 (or .def_570 .def_566))) (let ((.def_572 (or .def_571 .def_563))) (let ((.def_573 (not .def_572))) (let ((.def_574 (and .def_33 A9))) (let ((.def_575 (not .def_574))) (let ((.def_576 (or .def_102 .def_348))) (let ((.def_577 (or .def_576 .def_575))) (let ((.def_578 (+ .def_186 .def_2))) (let ((.def_579 (< .def_578 (- 1)))) (let ((.def_580 (not .def_579))) (let ((.def_581 (or .def_580 .def_516))) (let ((.def_582 (or .def_129 A9))) (let ((.def_583 (not .def_582))) (let ((.def_584 (or .def_583 .def_581))) (let ((.def_585 (and .def_584 .def_577))) (let ((.def_586 (and .def_585 .def_573))) (let ((.def_587 (or .def_586 .def_557))) (let ((.def_588 (not .def_587))) (let ((.def_589 (and .def_588 .def_529))) (let ((.def_590 (or .def_589 .def_456))) (let ((.def_591 (not .def_590))) (let ((.def_592 (or .def_591 .def_311))) (let ((.def_593 (not .def_592))) (let ((.def_594 (<= x9 1))) (let ((.def_595 (<= 0 x9))) (let ((.def_596 (<= x8 1))) (let ((.def_597 (<= 0 x8))) (let ((.def_598 (<= x7 1))) (let ((.def_599 (<= 0 x7))) (let ((.def_600 (<= x6 1))) (let ((.def_601 (<= 0 x6))) (let ((.def_602 (<= x5 1))) (let ((.def_603 (<= 0 x5))) (let ((.def_604 (<= x4 1))) (let ((.def_605 (<= 0 x4))) (let ((.def_606 (<= x3 1))) (let ((.def_607 (<= 0 x3))) (let ((.def_608 (<= x2 1))) (let ((.def_609 (<= 0 x2))) (let ((.def_610 (<= x1 1))) (let ((.def_611 (<= 0 x1))) (let ((.def_612 (<= x0 1))) (let ((.def_613 (<= 0 x0))) (let ((.def_614 (and .def_613 .def_612 .def_611 .def_610 .def_609 .def_608 .def_607 .def_606 .def_605 .def_604 .def_603 .def_602 .def_601 .def_600 .def_599 .def_598 .def_597 .def_596 .def_595 .def_594 .def_593))) .def_614))))))))))))))))))))))))))))))))))))))))))))))))))))))))))))))))))))))))))))))))))))))))))))))))))))))))))))))))))))))))))))))))))))))))))))))))))))))))))))))))))))))))))))))))))))))))))))))))))))))))))))))))))))))))))))))))))))))))))))))))))))))))))))))))))))))))))))))))))))))))))))))))))))))))))))))))))))))))))))))))))))))))))))))))))))))))))))))))))))))))))))))))))))))))))))))))))))))))))))))))))))))))))))))))))))))))))))))))))))))))))))))))))))))))))))))))))))))))))))))))))))))))))))))))))))))))))))))))))))))))))))))))))))))))))))))))))))))))))))))))))))))))))))))))))))))))))))))))))))))))))))))))))))))))
(check-sat)
